c status 7 1469387476923
c status 6 1469387476923
s td 9 6 14
b 1 1 2 6 10
b 2 14 13 9 3
b 3 7 2 8 12
b 4 11 4 10 12
b 5 5 4 6 8
b 6 13 9 3 6 12
b 7 9 3 6 8 10 12
b 8 2 3 6 8 10 12
b 9 4 3 6 8 10 12
1 8
8 7
8 9
7 6
8 3
6 2
9 4
9 5
